10 10 4

0 253 445 369 472 473 164 169 371 237 
300 0 416 492 493 451 97 199 169 141 
390 342 0 183 422 125 281 202 450 339 
443 372 404 0 204 124 105 279 96 77 
149 422 398 337 0 221 69 328 420 471 
132 325 346 223 215 0 187 112 343 470 
343 496 419 389 438 497 0 499 348 121 
103 126 374 131 432 51 479 0 268 429 
255 303 348 432 141 380 277 70 0 94 
171 132 387 140 182 382 265 277 319 0 

449.13 0 3
449.13 1 3
449.13 2 7
449.13 3 6
449.13 4 5
449.13 5 6
449.13 6 4
449.13 7 2
449.13 8 5
449.13 9 1

